\ENCODING=ISO-8859-1
\Problem name: IloCplex

Minimize
 obj: 13 X(0)(0) + 14 X(0)(1) + 15 X(0)(2) + 4 X(0)(3) + 5 X(0)(4) + 13 X(1)(0)
      + 7 X(1)(1) + 8 X(1)(2) + 4 X(1)(3) + 2 X(1)(4) + 11 X(2)(0) + 12 X(2)(1)
      + 5 X(2)(2) + 2 X(2)(3) + 3 X(2)(4) + 8 X(3)(0) + 19 X(3)(1) + 30 X(3)(2)
      + 2 X(3)(3) + 4 X(3)(4) + 8 X(4)(0) + 17 X(4)(1) + 3 X(4)(2) + 54 X(4)(3)
      + 20 X(4)(4)
Subject To
 ASSIGN(0): X(0)(0) + X(0)(1) + X(0)(2) + X(0)(3) + X(0)(4)  = 1
 ASSIGN(1): X(1)(0) + X(1)(1) + X(1)(2) + X(1)(3) + X(1)(4)  = 1
 ASSIGN(2): X(2)(0) + X(2)(1) + X(2)(2) + X(2)(3) + X(2)(4)  = 1
 ASSIGN(3): X(3)(0) + X(3)(1) + X(3)(2) + X(3)(3) + X(3)(4)  = 1
 ASSIGN(4): X(4)(0) + X(4)(1) + X(4)(2) + X(4)(3) + X(4)(4)  = 1
 ALOC(0):   X(0)(0) + X(1)(0) + X(2)(0) + X(3)(0) + X(4)(0)  = 1
 ALOC(1):   X(0)(1) + X(1)(1) + X(2)(1) + X(3)(1) + X(4)(1)  = 1
 ALOC(2):   X(0)(2) + X(1)(2) + X(2)(2) + X(3)(2) + X(4)(2)  = 1
 ALOC(3):   X(0)(3) + X(1)(3) + X(2)(3) + X(3)(3) + X(4)(3)  = 1
 ALOC(4):   X(0)(4) + X(1)(4) + X(2)(4) + X(3)(4) + X(4)(4)  = 1
Bounds
 0 <= X(0)(0) <= 1
 0 <= X(0)(1) <= 1
 0 <= X(0)(2) <= 1
 0 <= X(0)(3) <= 1
 0 <= X(0)(4) <= 1
 0 <= X(1)(0) <= 1
 0 <= X(1)(1) <= 1
 0 <= X(1)(2) <= 1
 0 <= X(1)(3) <= 1
 0 <= X(1)(4) <= 1
 0 <= X(2)(0) <= 1
 0 <= X(2)(1) <= 1
 0 <= X(2)(2) <= 1
 0 <= X(2)(3) <= 1
 0 <= X(2)(4) <= 1
 0 <= X(3)(0) <= 1
 0 <= X(3)(1) <= 1
 0 <= X(3)(2) <= 1
 0 <= X(3)(3) <= 1
 0 <= X(3)(4) <= 1
 0 <= X(4)(0) <= 1
 0 <= X(4)(1) <= 1
 0 <= X(4)(2) <= 1
 0 <= X(4)(3) <= 1
 0 <= X(4)(4) <= 1
Binaries
 X(0)(0)  X(0)(1)  X(0)(2)  X(0)(3)  X(0)(4)  X(1)(0)  X(1)(1)  X(1)(2) 
 X(1)(3)  X(1)(4)  X(2)(0)  X(2)(1)  X(2)(2)  X(2)(3)  X(2)(4)  X(3)(0) 
 X(3)(1)  X(3)(2)  X(3)(3)  X(3)(4)  X(4)(0)  X(4)(1)  X(4)(2)  X(4)(3) 
 X(4)(4) 
End
